40
1 0 54
2 0 77
2 1 66
3 0 20
3 1 19
3 2 38
4 0 44
4 1 76
4 2 40
4 3 23
5 0 80
5 1 106
5 2 75
5 3 104
5 4 59
6 0 79
6 1 33
6 2 40
6 3 90
6 4 82
6 5 50
7 0 82
7 1 59
7 2 4
7 3 55
7 4 110
7 5 39
7 6 120
8 0 76
8 1 28
8 2 88
8 3 71
8 4 90
8 5 20
8 6 98
8 7 65
9 0 96
9 1 41
9 2 106
9 3 38
9 4 84
9 5 109
9 6 83
9 7 87
9 8 71
10 0 87
10 1 63
10 2 111
10 3 55
10 4 3
10 5 21
10 6 3
10 7 86
10 8 8
10 9 79
11 0 73
11 1 42
11 2 102
11 3 22
11 4 93
11 5 76
11 6 29
11 7 78
11 8 67
11 9 45
11 10 93
12 0 102
12 1 112
12 2 62
12 3 10
12 4 117
12 5 73
12 6 27
12 7 96
12 8 25
12 9 41
12 10 1
12 11 29
13 0 56
13 1 77
13 2 47
13 3 42
13 4 67
13 5 103
13 6 27
13 7 73
13 8 47
13 9 23
13 10 83
13 11 114
13 12 109
14 0 5
14 1 62
14 2 102
14 3 112
14 4 91
14 5 113
14 6 23
14 7 12
14 8 87
14 9 66
14 10 60
14 11 68
14 12 35
14 13 119
15 0 75
15 1 13
15 2 8
15 3 11
15 4 17
15 5 104
15 6 54
15 7 115
15 8 102
15 9 108
15 10 70
15 11 16
15 12 23
15 13 16
15 14 119
16 0 97
16 1 68
16 2 64
16 3 72
16 4 84
16 5 88
16 6 60
16 7 112
16 8 9
16 9 105
16 10 101
16 11 81
16 12 3
16 13 114
16 14 103
16 15 105
17 0 6
17 1 53
17 2 34
17 3 59
17 4 51
17 5 76
17 6 29
17 7 8
17 8 2
17 9 118
17 10 50
17 11 84
17 12 56
17 13 34
17 14 6
17 15 78
17 16 114
18 0 71
18 1 66
18 2 23
18 3 107
18 4 32
18 5 86
18 6 73
18 7 38
18 8 49
18 9 120
18 10 46
18 11 101
18 12 75
18 13 26
18 14 117
18 15 40
18 16 8
18 17 67
19 0 107
19 1 99
19 2 103
19 3 3
19 4 81
19 5 31
19 6 67
19 7 59
19 8 29
19 9 116
19 10 43
19 11 113
19 12 74
19 13 25
19 14 103
19 15 98
19 16 114
19 17 120
19 18 113
20 0 36
20 1 58
20 2 3
20 3 110
20 4 13
20 5 78
20 6 68
20 7 110
20 8 10
20 9 89
20 10 68
20 11 54
20 12 66
20 13 71
20 14 34
20 15 30
20 16 55
20 17 39
20 18 20
20 19 16
21 0 64
21 1 18
21 2 3
21 3 39
21 4 16
21 5 69
21 6 53
21 7 64
21 8 55
21 9 93
21 10 6
21 11 91
21 12 27
21 13 98
21 14 32
21 15 55
21 16 23
21 17 112
21 18 44
21 19 100
21 20 108
22 0 28
22 1 23
22 2 9
22 3 75
22 4 49
22 5 98
22 6 119
22 7 56
22 8 42
22 9 107
22 10 46
22 11 108
22 12 84
22 13 65
22 14 109
22 15 47
22 16 100
22 17 15
22 18 64
22 19 94
22 20 90
22 21 10
23 0 78
23 1 77
23 2 103
23 3 90
23 4 57
23 5 81
23 6 82
23 7 106
23 8 51
23 9 118
23 10 102
23 11 28
23 12 48
23 13 91
23 14 6
23 15 55
23 16 46
23 17 76
23 18 93
23 19 19
23 20 69
23 21 99
23 22 111
24 0 106
24 1 9
24 2 98
24 3 88
24 4 37
24 5 114
24 6 23
24 7 64
24 8 6
24 9 107
24 10 90
24 11 31
24 12 85
24 13 17
24 14 36
24 15 99
24 16 21
24 17 18
24 18 55
24 19 89
24 20 28
24 21 29
24 22 57
24 23 60
25 0 9
25 1 31
25 2 4
25 3 84
25 4 24
25 5 110
25 6 34
25 7 116
25 8 92
25 9 50
25 10 94
25 11 9
25 12 63
25 13 49
25 14 5
25 15 95
25 16 89
25 17 58
25 18 90
25 19 52
25 20 100
25 21 96
25 22 3
25 23 14
25 24 70
26 0 41
26 1 18
26 2 24
26 3 19
26 4 18
26 5 89
26 6 54
26 7 41
26 8 46
26 9 24
26 10 88
26 11 75
26 12 118
26 13 111
26 14 65
26 15 19
26 16 68
26 17 96
26 18 59
26 19 77
26 20 63
26 21 75
26 22 72
26 23 80
26 24 70
26 25 86
27 0 3
27 1 16
27 2 43
27 3 110
27 4 67
27 5 81
27 6 67
27 7 60
27 8 8
27 9 35
27 10 108
27 11 103
27 12 82
27 13 72
27 14 107
27 15 117
27 16 48
27 17 41
27 18 16
27 19 119
27 20 37
27 21 22
27 22 74
27 23 55
27 24 107
27 25 99
27 26 34
28 0 120
28 1 99
28 2 119
28 3 106
28 4 61
28 5 35
28 6 107
28 7 87
28 8 11
28 9 98
28 10 16
28 11 2
28 12 56
28 13 17
28 14 18
28 15 95
28 16 49
28 17 62
28 18 95
28 19 80
28 20 56
28 21 61
28 22 58
28 23 108
28 24 22
28 25 35
28 26 7
28 27 61
29 0 37
29 1 99
29 2 51
29 3 54
29 4 117
29 5 66
29 6 50
29 7 5
29 8 83
29 9 56
29 10 67
29 11 19
29 12 70
29 13 77
29 14 78
29 15 118
29 16 50
29 17 71
29 18 46
29 19 19
29 20 13
29 21 20
29 22 45
29 23 89
29 24 112
29 25 74
29 26 32
29 27 48
29 28 71
30 0 34
30 1 114
30 2 54
30 3 93
30 4 110
30 5 105
30 6 118
30 7 111
30 8 57
30 9 13
30 10 10
30 11 51
30 12 29
30 13 75
30 14 89
30 15 34
30 16 26
30 17 104
30 18 24
30 19 7
30 20 44
30 21 82
30 22 81
30 23 90
30 24 19
30 25 21
30 26 87
30 27 80
30 28 46
30 29 115
31 0 89
31 1 75
31 2 31
31 3 110
31 4 37
31 5 8
31 6 33
31 7 72
31 8 51
31 9 95
31 10 41
31 11 69
31 12 96
31 13 47
31 14 14
31 15 69
31 16 87
31 17 97
31 18 76
31 19 29
31 20 34
31 21 42
31 22 68
31 23 84
31 24 104
31 25 14
31 26 94
31 27 45
31 28 24
31 29 112
31 30 1
32 0 87
32 1 53
32 2 104
32 3 91
32 4 98
32 5 5
32 6 12
32 7 106
32 8 112
32 9 40
32 10 109
32 11 36
32 12 71
32 13 19
32 14 82
32 15 100
32 16 91
32 17 116
32 18 55
32 19 31
32 20 118
32 21 14
32 22 43
32 23 110
32 24 110
32 25 49
32 26 103
32 27 52
32 28 40
32 29 14
32 30 107
32 31 73
33 0 69
33 1 98
33 2 2
33 3 38
33 4 22
33 5 9
33 6 43
33 7 2
33 8 1
33 9 79
33 10 115
33 11 43
33 12 15
33 13 86
33 14 84
33 15 91
33 16 37
33 17 42
33 18 7
33 19 18
33 20 114
33 21 32
33 22 26
33 23 10
33 24 72
33 25 76
33 26 49
33 27 7
33 28 68
33 29 26
33 30 52
33 31 80
33 32 31
34 0 47
34 1 95
34 2 103
34 3 20
34 4 87
34 5 100
34 6 76
34 7 82
34 8 20
34 9 103
34 10 91
34 11 23
34 12 1
34 13 10
34 14 39
34 15 8
34 16 17
34 17 111
34 18 53
34 19 66
34 20 48
34 21 3
34 22 21
34 23 81
34 24 103
34 25 107
34 26 67
34 27 72
34 28 54
34 29 18
34 30 48
34 31 20
34 32 37
34 33 98
35 0 13
35 1 50
35 2 72
35 3 113
35 4 97
35 5 52
35 6 102
35 7 82
35 8 47
35 9 98
35 10 116
35 11 74
35 12 47
35 13 54
35 14 56
35 15 89
35 16 96
35 17 79
35 18 82
35 19 87
35 20 10
35 21 76
35 22 100
35 23 5
35 24 20
35 25 109
35 26 41
35 27 28
35 28 22
35 29 28
35 30 88
35 31 67
35 32 120
35 33 119
35 34 1
36 0 48
36 1 12
36 2 31
36 3 38
36 4 66
36 5 26
36 6 107
36 7 39
36 8 11
36 9 84
36 10 48
36 11 77
36 12 57
36 13 94
36 14 59
36 15 19
36 16 4
36 17 108
36 18 55
36 19 16
36 20 10
36 21 109
36 22 96
36 23 51
36 24 43
36 25 115
36 26 103
36 27 33
36 28 23
36 29 10
36 30 35
36 31 44
36 32 17
36 33 1
36 34 71
36 35 25
37 0 63
37 1 77
37 2 14
37 3 3
37 4 35
37 5 29
37 6 29
37 7 78
37 8 30
37 9 32
37 10 70
37 11 26
37 12 40
37 13 42
37 14 62
37 15 69
37 16 82
37 17 114
37 18 41
37 19 79
37 20 70
37 21 75
37 22 96
37 23 43
37 24 68
37 25 109
37 26 109
37 27 73
37 28 27
37 29 38
37 30 24
37 31 74
37 32 67
37 33 115
37 34 108
37 35 75
37 36 98
38 0 81
38 1 76
38 2 57
38 3 38
38 4 101
38 5 73
38 6 112
38 7 71
38 8 20
38 9 56
38 10 73
38 11 94
38 12 4
38 13 30
38 14 96
38 15 35
38 16 55
38 17 11
38 18 80
38 19 4
38 20 56
38 21 71
38 22 68
38 23 91
38 24 68
38 25 13
38 26 56
38 27 42
38 28 87
38 29 31
38 30 84
38 31 4
38 32 89
38 33 56
38 34 70
38 35 109
38 36 30
38 37 41
39 0 62
39 1 32
39 2 62
39 3 19
39 4 89
39 5 69
39 6 108
39 7 97
39 8 101
39 9 10
39 10 62
39 11 111
39 12 62
39 13 51
39 14 68
39 15 15
39 16 49
39 17 93
39 18 50
39 19 57
39 20 110
39 21 37
39 22 22
39 23 84
39 24 31
39 25 119
39 26 81
39 27 87
39 28 32
39 29 19
39 30 87
39 31 65
39 32 83
39 33 25
39 34 50
39 35 66
39 36 110
39 37 46
39 38 77
